30979.11
181 177 108 23 136 83 128 9 117 148 192 62 5 48 89 78 17 115 150 93 162 143 87 15 21 69 183 151 110 65 195 186 25 64 3 147 52 165 18 118 198 191 109 74 96 144 196 180 55 199 132 135 156 173 79 30 88 168 41 7 113 91 103 0 159 92 27 66 140 102 172 158 188 39 63 53 120 1 169 175 81 94 12 75 32 36 142 4 104 95 77 51 155 170 137 138 127 47 187 197 99 70 40 157 13 2 42 133 189 124 116 45 28 29 171 182 161 84 67 149 38 185 194 193 190 49 43 72 122 68 129 167 134 101 80 24 60 176 57 179 50 86 105 153 174 33 121 107 82 54 6 8 56 130 166 146 19 11 26 85 34 141 154 163 119 61 59 178 76 164 112 114 22 97 126 90 44 184 100 14 16 10 152 31 139 46 111 145 71 20 73 58 123 131 35 160 37 125 98 106